1 0 1 0 1 0 0 1 0 0 
0 52 34 26 32 42 56 15 64 16 
52 0 74 54 43 77 66 66 48 27 
34 74 0 34 42 45 59 46 27 35 
26 54 34 0 30 46 72 66 66 52 
32 43 42 30 0 16 36 21 70 31 
42 77 45 46 16 0 40 68 28 47 
56 66 59 72 36 40 0 69 69 27 
15 66 46 66 21 68 69 0 63 66 
64 48 27 66 70 28 69 63 0 48 
16 27 35 52 31 47 27 66 48 0 
2 50
1P 8P 2B 4B 3P 9B 6B 5P 7B 10B = 319